(set-info :smt-lib-version 2.6)
(set-logic QF_SLIA)
(set-info :source |
Generated by: Dmitry Blotsky1, Federico Mora, Murphy Berzish, Yunhui Zheng, Ifaz Kabir, Vijay Ganesh, Zhengyang Lu
Generated on: 2018-01-24
Generator: StringFuzz
Application: Evaluate string solvers
Target solver: Z3str3, CVC4, Z3str2, Norn
Publications: Blotsky, D., Mora, F., Berzish, M., Zheng, Y., Kabir, I., & Ganesh, V. (2018). Stringfuzz: A fuzzer for string solvers. In CAV 2018.
Description: transformed by StringFuzz, a modular string and regex fuzzer, from an industrial benchmark
|)
(set-info :license "https://creativecommons.org/licenses/by/4.0/")
(set-info :category "random")
(set-info :status unknown)

(declare-const S String)
(assert (not (str.in_re S (re.++ (str.to_re "j?'\n'HT'\r'AEq_I' 'jx+vf+@xoh_jn@FX9'\x0b''\\^To'\t''\t'Fz94w%H-*c=E'\x0b'' ']HEidVbhm0[$^'\n''bD'\x0b':S7jAOxx.BZ'\x0c'R$}!' 'gp;p") re.allchar))))
(assert (str.in_re S (re.++ (re.union (re.union (str.to_re "'(E}1rKui2e'\x0b''\x0c'p(0#ckr'[FB7Y_yXBDBPD0'' '""nF'M' 'kx0cU\\L(X/864B|r") re.allchar) (str.to_re "h\\TV")) re.allchar)))
(check-sat)

(exit)
